%nprocshared=4
%mem=1GB
%chk=D:\DFT\Curcumin\IR_Frequency.chk
# freq=raman b3lyp/6-31g geom=connectivity

Title Card Required

0 1
 O                  7.40290000   -1.32630000    0.77590000
 O                 -7.38710000   -1.19720000   -1.02490000
 O                  6.31350000   -3.34040000   -0.79950000
 O                 -7.44310000   -1.95080000    1.64980000
 O                  2.07740000    3.91830000    0.00820000
 O                 -0.73370000    2.01470000   -1.54970000
 C                  4.21520000    0.16240000   -0.16180000
 C                 -4.14990000    0.01870000    0.11510000
 C                  0.03250000    2.78810000    0.60050000
 C                  5.46360000    0.00900000    0.41900000
 C                 -5.21980000   -0.25840000   -0.72030000
 C                  6.17540000   -1.17160000    0.20580000
 C                 -6.33360000   -0.92250000   -0.20610000
 C                  3.65910000   -0.83210000   -0.94990000
 C                 -4.16320000   -0.35000000    1.45060000
 C                  3.46330000    1.40980000    0.06230000
 C                 -2.97360000    0.72110000   -0.42740000
 C                  5.62880000   -2.18240000   -0.58510000
 C                 -6.36190000   -1.30040000    1.13640000
 C                  1.47500000    2.85590000    0.13930000
 C                 -0.91610000    2.06630000   -0.33610000
 C                  4.37070000   -2.01250000   -1.16310000
 C                 -5.27670000   -1.01400000    1.96460000
 C                  2.13980000    1.54140000   -0.10410000
 C                 -2.06930000    1.37630000    0.31420000
 C                  7.88960000   -0.24600000    1.56980000
 C                 -7.27880000   -0.77710000   -2.38360000
 H                 -0.33960000    3.81250000    0.71590000
 H                  0.02920000    2.31690000    1.58990000
 H                  5.83870000    0.82620000    1.02580000
 H                 -5.14480000    0.06020000   -1.75450000
 H                  2.69360000   -0.73390000   -1.43620000
 H                 -3.33330000   -0.16760000    2.12580000
 H                  4.05820000    2.26790000    0.36720000
 H                 -2.87040000    0.68860000   -1.50960000
 H                  3.94190000   -2.79460000   -1.78390000
 H                 -5.28410000   -1.30740000    3.01110000
 H                  1.49080000    0.70930000   -0.34790000
 H                 -2.13530000    1.46860000    1.39160000
 H                  7.16160000   -3.28620000   -0.32570000
 H                 -7.28550000   -2.13230000    2.59220000
 H                  7.25780000   -0.07320000    2.44780000
 H                  8.03370000    0.66110000    0.97310000
 H                  8.87630000   -0.54000000    1.94270000
 H                 -6.45760000   -1.28600000   -2.89960000
 H                 -7.21240000    0.31320000   -2.46530000
 H                 -8.20370000   -1.07680000   -2.88760000

 1 12 1.0 26 1.0
 2 13 1.0 27 1.0
 3 18 1.0 40 1.0
 4 19 1.0 41 1.0
 5 20 2.0
 6 21 2.0
 7 10 2.0 14 1.0 16 1.0
 8 11 2.0 15 1.0 17 1.0
 9 20 1.0 21 1.0 28 1.0 29 1.0
 10 12 1.0 30 1.0
 11 13 1.0 31 1.0
 12 18 2.0
 13 19 2.0
 14 22 2.0 32 1.0
 15 23 2.0 33 1.0
 16 24 2.0 34 1.0
 17 25 2.0 35 1.0
 18 22 1.0
 19 23 1.0
 20 24 1.0
 21 25 1.0
 22 36 1.0
 23 37 1.0
 24 38 1.0
 25 39 1.0
 26 42 1.0 43 1.0 44 1.0
 27 45 1.0 46 1.0 47 1.0
 28
 29
 30
 31
 32
 33
 34
 35
 36
 37
 38
 39
 40
 41
 42
 43
 44
 45
 46
 47

